2031423
19 4 238490
4 16 223221
16 10 21151
10 6 253563
6 20 207524
20 5 53722
5 11 43367
11 12 123742
12 9 50022
9 13 45505
13 7 118893
7 1 35813
1 2 106843
2 3 14476
3 17 20583
17 18 136280
18 14 103707
14 8 61570
8 15 67784
15 19 105167
